(declare-const e0tp Int )
    (declare-const e1tp Int )
    (declare-const e2tp Int )
    (assert (= e0tp (type_channel_penalty e0)))
    (assert (= e1tp (type_channel_penalty e1)))
    (assert (= e2tp (type_channel_penalty e2)))


(get-value (e0tp))
(get-value (e1tp))
(get-value (e2tp))
    
